46
75
60	2
59	2
58	2
57	1
56	3
55	1
54	1
53	1
52	4
50	1
49	3
48	3
47	2
46	5
45	4
44	3
43	3
41	2
38	1
37	3
36	2
34	5
33	2
32	1
31	1
29	2
27	1
26	1
25	2
24	1
23	2
22	2
21	1
20	4
19	4
18	1
17	1
16	1
15	1
14	3
13	3
12	1
11	2
10	2
8	3
7	4
